NAME : ManP-5-0
COMMENT : Pilot. 5 postmen. Max route 2941.15=4999.955m
TYPE : TSP
DIMENSION : 6
VEHICLES : 5
SCALE : 1000
DISTANCE : 4999.955
EDGE_WEIGHT_TYPE : EXPLICIT
EDGE_WEIGHT_FORMAT : UPPER_ROW
EDGE_WEIGHT_SECTION
708.592
471.559
459.143
1344.083
612.766

1170.098
1157.681
1049.064
1306.698

79.807
1809.530
463.038

1797.113
435.146

1948.440

DEPOT_SECTION
1
-1
EOF
